
Welcome to IBM(R) ILOG(R) CPLEX(R) Interactive Optimizer 22.1.1.0
  with Simplex, Mixed Integer & Barrier Optimizers
5725-A06 5725-A29 5724-Y48 5724-Y49 5724-Y54 5724-Y55 5655-Y21
Copyright IBM Corp. 1988, 2022.  All Rights Reserved.

Type 'help' for a list of available commands.
Type 'help' followed by a command name for more
information on commands.

CPLEX> Selected objective sense:  MINIMIZE
Selected objective  name:  00000000
Selected RHS        name:  RHS1
Selected bound      name:  BOUND
Problem 'ee.mps' read.
Read time = 0.02 sec. (3.17 ticks)
CPLEX> New value for time limit in seconds: 7200
CPLEX> New value for parallel optimization mode: -1
CPLEX> New value for default parallel thread count: 40
CPLEX> New value for mixed integer optimality gap tolerance: 1e-13
CPLEX> Version identifier: 22.1.1.0 | 2022-11-28 | 9160aff4d
CPXPARAM_Threads                                 40
CPXPARAM_Parallel                                -1
CPXPARAM_TimeLimit                               7200
CPXPARAM_MIP_Tolerances_MIPGap                   1e-13
Found incumbent of value 0.000000 after 0.00 sec. (0.31 ticks)
Tried aggregator 2 times.
MIP Presolve eliminated 180 rows and 2745 columns.
MIP Presolve modified 6090 coefficients.
Aggregator did 713 substitutions.
Reduced MIP has 3635 rows, 7835 columns, and 28930 nonzeros.
Reduced MIP has 7835 binaries, 0 generals, 0 SOSs, and 0 indicators.
Presolve time = 0.07 sec. (68.89 ticks)
Probing time = 0.03 sec. (5.32 ticks)
Tried aggregator 1 time.
Detecting symmetries...
Reduced MIP has 3635 rows, 7835 columns, and 28930 nonzeros.
Reduced MIP has 7835 binaries, 0 generals, 0 SOSs, and 0 indicators.
Presolve time = 0.02 sec. (21.99 ticks)
Probing time = 0.02 sec. (5.12 ticks)
Clique table members: 18781.
MIP emphasis: balance optimality and feasibility.
MIP search method: dynamic search.
Parallel mode: opportunistic, using up to 40 threads.
Root relaxation solution time = 0.12 sec. (104.33 ticks)

        Nodes                                         Cuts/
   Node  Left     Objective  IInf  Best Integer    Best Bound    ItCnt     Gap

*     0+    0                            0.0000  -1.54000e+13              --- 
*     0+    0                      -3.39000e+12  -1.54000e+13           354.28%
*     0+    0                      -4.59000e+12  -1.54000e+13           235.51%
*     0+    0                      -6.00000e+12  -1.54000e+13           156.67%
*     0+    0                      -6.99000e+12  -1.54000e+13           120.31%
      0     0  -1.53900e+13    64  -6.99000e+12  -1.53900e+13     2571  120.17%
*     0+    0                      -1.53900e+13  -1.53900e+13             0.00%
*     0+    0                      -1.53900e+13  -1.53900e+13             0.00%
      0     0  -1.53900e+13   122  -1.53900e+13      Cuts: 62     2738    0.00%
*     0+    0                      -1.53900e+13  -1.53900e+13             0.00%
      0     0  -1.53900e+13   142  -1.53900e+13      Cuts: 66     3270    0.00%
*     0+    0                      -1.53900e+13  -1.53900e+13             0.00%
      0     2  -1.53900e+13   135  -1.53900e+13  -1.53900e+13     3270    0.00%
Elapsed time = 2.31 sec. (1174.21 ticks, tree = 0.02 MB, solutions = 14)
    220    84        cutoff        -1.53900e+13  -1.53900e+13    25097    0.00%
    704    87  -1.53900e+13   109  -1.53900e+13  -1.53900e+13    24495    0.00%
   1075   271  -1.53900e+13    51  -1.53900e+13  -1.53900e+13    67686    0.00%
   1364   686  -1.53900e+13   120  -1.53900e+13  -1.53900e+13   177658    0.00%
   1884  1076  -1.53900e+13   110  -1.53900e+13  -1.53900e+13   280179    0.00%
   2542  1747  -1.53900e+13   203  -1.53900e+13  -1.53900e+13   475393    0.00%
*  2704  1023      integral     0  -1.53900e+13  -1.53900e+13   266322    0.00%
   3070  1131  -1.53900e+13   199  -1.53900e+13  -1.53900e+13   294872    0.00%
   3528  1160  -1.53900e+13    92  -1.53900e+13  -1.53900e+13   304506    0.00%
   3902  1501  -1.53900e+13   200  -1.53900e+13  -1.53900e+13   388517    0.00%
   4781  2072  -1.53900e+13   240  -1.53900e+13  -1.53900e+13   626842    0.00%
Elapsed time = 8.09 sec. (4284.89 ticks, tree = 5.72 MB, solutions = 20)
   5461  2314  -1.53900e+13   238  -1.53900e+13  -1.53900e+13   841189    0.00%
   5896  2539  -1.53900e+13   134  -1.53900e+13  -1.53900e+13  1193442    0.00%
   6229  2575  -1.53900e+13   221  -1.53900e+13  -1.53900e+13  1609108    0.00%
   6546  2579        cutoff        -1.53900e+13  -1.53900e+13  1549941    0.00%
   6803  2573        cutoff        -1.53900e+13  -1.53900e+13  1602479    0.00%
   7086  2581  -1.53900e+13   207  -1.53900e+13  -1.53900e+13  1806548    0.00%
   7397  2564  -1.53900e+13   319  -1.53900e+13  -1.53900e+13  1904820    0.00%
   7658  2523        cutoff        -1.53900e+13  -1.53900e+13  2113789    0.00%
   7940  2159        cutoff        -1.53900e+13  -1.53900e+13  3430217    0.00%
   8128  2286        cutoff        -1.53900e+13  -1.53900e+13  3087750    0.00%
Elapsed time = 26.58 sec. (13881.50 ticks, tree = 6.85 MB, solutions = 20)
   8343  2404        cutoff        -1.53900e+13  -1.53900e+13  2688014    0.00%
   8533  2355        cutoff        -1.53900e+13  -1.53900e+13  2896688    0.00%
   8746  1853  -1.53900e+13   133  -1.53900e+13  -1.53900e+13  4363236    0.00%
   8965  2285  -1.53900e+13   207  -1.53900e+13  -1.53900e+13  3128102    0.00%
   9159  1641  -1.53900e+13   177  -1.53900e+13  -1.53900e+13  5088596    0.00%
   9407  2074  -1.53900e+13   300  -1.53900e+13  -1.53900e+13  3685532    0.00%
   9705  1596  -1.53900e+13   149  -1.53900e+13  -1.53900e+13  5553202    0.00%
  10063  1668  -1.53900e+13   224  -1.53900e+13  -1.53900e+13  4882595    0.00%
  10310  1939    infeasible        -1.53900e+13  -1.53900e+13  4122589    0.00%
  10630  1587  -1.53900e+13   268  -1.53900e+13  -1.53900e+13  5767561    0.00%
Elapsed time = 43.61 sec. (23497.83 ticks, tree = 4.24 MB, solutions = 20)
  10951  1820  -1.53900e+13   285  -1.53900e+13  -1.53900e+13  4460911    0.00%
  11228  1611  -1.53900e+13   155  -1.53900e+13  -1.53900e+13  5552402    0.00%
  11532  1593  -1.53900e+13   299  -1.53900e+13  -1.53900e+13  5759311    0.00%
  11743  1664  -1.53900e+13   311  -1.53900e+13  -1.53900e+13  5029418    0.00%
  11912  1618  -1.53900e+13   401  -1.53900e+13  -1.53900e+13  5152691    0.00%
  12178  1596        cutoff        -1.53900e+13  -1.53900e+13  5427712    0.00%
  12502  1575        cutoff        -1.53900e+13  -1.53900e+13  5810499    0.00%
  12835  1613  -1.53900e+13   167  -1.53900e+13  -1.53900e+13  5496495    0.00%
  13266  1584  -1.53900e+13   229  -1.53900e+13  -1.53900e+13  5775764    0.00%
  13538  1574  -1.53900e+13   281  -1.53900e+13  -1.53900e+13  5804747    0.00%
Elapsed time = 46.39 sec. (33147.19 ticks, tree = 4.17 MB, solutions = 20)

Performing restart 1

Repeating presolve.
Tried aggregator 2 times.
MIP Presolve eliminated 690 rows and 1835 columns.
MIP Presolve modified 1925 coefficients.
Aggregator did 286 substitutions.
Reduced MIP has 2616 rows, 5675 columns, and 20620 nonzeros.
Reduced MIP has 5675 binaries, 0 generals, 0 SOSs, and 0 indicators.
Presolve time = 0.07 sec. (62.89 ticks)
Tried aggregator 2 times.
MIP Presolve eliminated 15 rows and 33 columns.
Aggregator did 11 substitutions.
Reduced MIP has 2590 rows, 5625 columns, and 20456 nonzeros.
Reduced MIP has 5625 binaries, 0 generals, 0 SOSs, and 0 indicators.
Presolve time = 0.04 sec. (38.57 ticks)
Represolve time = 0.21 sec. (146.52 ticks)
  13636     0  -1.53900e+13   414  -1.53900e+13      Cuts: 79  6615034    0.00%
  13636     0  -1.53900e+13   413  -1.53900e+13      Cuts: 69  6615556    0.00%
  13636     0  -1.53900e+13   321  -1.53900e+13      Cuts: 39  6616039    0.00%
  13636     0  -1.53900e+13   350  -1.53900e+13      Cuts: 56  6616137    0.00%
  13636     0  -1.53900e+13   360  -1.53900e+13      Cuts: 49  6616538    0.00%
  13636     0  -1.53900e+13   332  -1.53900e+13      Cuts: 54  6616954    0.00%
  13636     0  -1.53900e+13   337  -1.53900e+13      Cuts: 35  6617201    0.00%
  13636     0  -1.53900e+13   372  -1.53900e+13      Cuts: 41  6617381    0.00%
  13636     0  -1.53900e+13   373  -1.53900e+13      Cuts: 33  6617585    0.00%
  13636     0  -1.53900e+13   424  -1.53900e+13      Cuts: 45  6617791    0.00%
  13636     0  -1.53900e+13   445  -1.53900e+13      Cuts: 30  6617958    0.00%
  13636     0  -1.53900e+13   434  -1.53900e+13      Cuts: 24  6618212    0.00%
  13636     0  -1.53900e+13   440  -1.53900e+13      Cuts: 25  6618315    0.00%
  13636     0  -1.53900e+13   451  -1.53900e+13      Cuts: 15  6618356    0.00%
  13636     7        cutoff        -1.53900e+13  -1.53900e+13  6646905    0.00%
  15229    48        cutoff        -1.53900e+13  -1.53900e+13  6735049    0.00%
  18195   104  -1.53900e+13    58  -1.53900e+13  -1.53900e+13  6801024    0.00%
  19964    59        cutoff        -1.53900e+13  -1.53900e+13  6771039    0.00%

GUB cover cuts applied:  2
Clique cuts applied:  10
Cover cuts applied:  563
Flow cuts applied:  2
Mixed integer rounding cuts applied:  33
Zero-half cuts applied:  83
Lift and project cuts applied:  6
Gomory fractional cuts applied:  19

Root node processing (before b&c):
  Real time             =    1.41 sec. (1162.29 ticks)
Parallel b&c, 40 threads:
  Real time             =   58.89 sec. (42166.26 ticks)
  Sync time (average)   =    5.75 sec.
  Wait time (average)   =    0.12 sec.
                          ------------
Total (root+branch&cut) =   60.30 sec. (43328.55 ticks)

Solution pool: 20 solutions saved.

MIP - Integer optimal solution:  Objective = -1.5389999688e+13
Solution time =   60.44 sec.  Iterations = 6893690  Nodes = 21012
Deterministic time = 43328.59 ticks  (716.85 ticks/sec)

CPLEX> Solution 'p21' written to file 'ee.sol'.
CPLEX> 